NAME : single
TYPE : ATSP
DIMENSION : 7
EDGE_WEIGHT_TYPE : EXPLICIT
EDGE_WEIGHT_FORMAT : FULL_MATRIX
EDGE_WEIGHT_SECTION
0 862 1196 845 477 1246 1533 
199964 0 379 539 562 544 831 
199915 379 0 854 816 164 451 
199921 539 854 0 545 1019 1305 
199926 562 816 545 0 981 1267 
199882 544 164 1019 981 0 286 
199825 831 451 1305 1267 286 0 
EOF